n = 10;

R =
[|0,0,0,0,0,3,0,0,0,0,
 |0,0,0,0,0,3,0,0,0,0,
 |5,0,0,0,0,3,0,0,0,0,
 |5,0,1,0,0,0,0,0,0,0,
 |5,0,0,4,0,3,0,0,0,3,
 |5,0,0,4,0,3,0,0,0,3,
 |5,1,0,4,0,3,0,0,0,3,
 |0,0,0,4,0,0,0,0,0,0,
 |0,0,0,0,0,0,0,0,0,0,
 |0,0,3,3,3,1,1,0,0,0,
 |];

